c 5x5
p cnf 25 256
1 2 6 0
-1 -2 6 0
-1 2 -6 0
1 -2 -6 0
1 2 3 7 0
-1 -2 3 7 0
-1 2 -3 7 0
-1 2 3 -7 0
1 -2 -3 7 0
1 -2 3 -7 0
1 2 -3 -7 0
-1 -2 -3 -7 0
2 3 4 8 0
-2 -3 4 8 0
-2 3 -4 8 0
-2 3 4 -8 0
2 -3 -4 8 0
2 -3 4 -8 0
2 3 -4 -8 0
-2 -3 -4 -8 0
3 4 5 9 0
-3 -4 5 9 0
-3 4 -5 9 0
-3 4 5 -9 0
3 -4 -5 9 0
3 -4 5 -9 0
3 4 -5 -9 0
-3 -4 -5 -9 0
4 5 10 0
-4 -5 10 0
-4 5 -10 0
4 -5 -10 0
1 6 7 11 0
-1 -6 7 11 0
-1 6 -7 11 0
-1 6 7 -11 0
1 -6 -7 11 0
1 -6 7 -11 0
1 6 -7 -11 0
-1 -6 -7 -11 0
2 6 7 8 12 0
-2 -6 7 8 12 0
-2 6 -7 8 12 0
-2 6 7 -8 12 0
-2 6 7 8 -12 0
2 -6 -7 8 12 0
2 -6 7 -8 12 0
2 -6 7 8 -12 0
2 6 -7 -8 12 0
2 6 -7 8 -12 0
2 6 7 -8 -12 0
-2 -6 -7 -8 12 0
-2 -6 -7 8 -12 0
-2 -6 7 -8 -12 0
-2 6 -7 -8 -12 0
2 -6 -7 -8 -12 0
3 7 8 9 13 0
-3 -7 8 9 13 0
-3 7 -8 9 13 0
-3 7 8 -9 13 0
-3 7 8 9 -13 0
3 -7 -8 9 13 0
3 -7 8 -9 13 0
3 -7 8 9 -13 0
3 7 -8 -9 13 0
3 7 -8 9 -13 0
3 7 8 -9 -13 0
-3 -7 -8 -9 13 0
-3 -7 -8 9 -13 0
-3 -7 8 -9 -13 0
-3 7 -8 -9 -13 0
3 -7 -8 -9 -13 0
4 8 9 10 14 0
-4 -8 9 10 14 0
-4 8 -9 10 14 0
-4 8 9 -10 14 0
-4 8 9 10 -14 0
4 -8 -9 10 14 0
4 -8 9 -10 14 0
4 -8 9 10 -14 0
4 8 -9 -10 14 0
4 8 -9 10 -14 0
4 8 9 -10 -14 0
-4 -8 -9 -10 14 0
-4 -8 -9 10 -14 0
-4 -8 9 -10 -14 0
-4 8 -9 -10 -14 0
4 -8 -9 -10 -14 0
5 9 10 15 0
-5 -9 10 15 0
-5 9 -10 15 0
-5 9 10 -15 0
5 -9 -10 15 0
5 -9 10 -15 0
5 9 -10 -15 0
-5 -9 -10 -15 0
6 11 12 16 0
-6 -11 12 16 0
-6 11 -12 16 0
-6 11 12 -16 0
6 -11 -12 16 0
6 -11 12 -16 0
6 11 -12 -16 0
-6 -11 -12 -16 0
7 11 12 13 17 0
-7 -11 12 13 17 0
-7 11 -12 13 17 0
-7 11 12 -13 17 0
-7 11 12 13 -17 0
7 -11 -12 13 17 0
7 -11 12 -13 17 0
7 -11 12 13 -17 0
7 11 -12 -13 17 0
7 11 -12 13 -17 0
7 11 12 -13 -17 0
-7 -11 -12 -13 17 0
-7 -11 -12 13 -17 0
-7 -11 12 -13 -17 0
-7 11 -12 -13 -17 0
7 -11 -12 -13 -17 0
8 12 13 14 18 0
-8 -12 13 14 18 0
-8 12 -13 14 18 0
-8 12 13 -14 18 0
-8 12 13 14 -18 0
8 -12 -13 14 18 0
8 -12 13 -14 18 0
8 -12 13 14 -18 0
8 12 -13 -14 18 0
8 12 -13 14 -18 0
8 12 13 -14 -18 0
-8 -12 -13 -14 18 0
-8 -12 -13 14 -18 0
-8 -12 13 -14 -18 0
-8 12 -13 -14 -18 0
8 -12 -13 -14 -18 0
9 13 14 15 19 0
-9 -13 14 15 19 0
-9 13 -14 15 19 0
-9 13 14 -15 19 0
-9 13 14 15 -19 0
9 -13 -14 15 19 0
9 -13 14 -15 19 0
9 -13 14 15 -19 0
9 13 -14 -15 19 0
9 13 -14 15 -19 0
9 13 14 -15 -19 0
-9 -13 -14 -15 19 0
-9 -13 -14 15 -19 0
-9 -13 14 -15 -19 0
-9 13 -14 -15 -19 0
9 -13 -14 -15 -19 0
10 14 15 20 0
-10 -14 15 20 0
-10 14 -15 20 0
-10 14 15 -20 0
10 -14 -15 20 0
10 -14 15 -20 0
10 14 -15 -20 0
-10 -14 -15 -20 0
11 16 17 21 0
-11 -16 17 21 0
-11 16 -17 21 0
-11 16 17 -21 0
11 -16 -17 21 0
11 -16 17 -21 0
11 16 -17 -21 0
-11 -16 -17 -21 0
12 16 17 18 22 0
-12 -16 17 18 22 0
-12 16 -17 18 22 0
-12 16 17 -18 22 0
-12 16 17 18 -22 0
12 -16 -17 18 22 0
12 -16 17 -18 22 0
12 -16 17 18 -22 0
12 16 -17 -18 22 0
12 16 -17 18 -22 0
12 16 17 -18 -22 0
-12 -16 -17 -18 22 0
-12 -16 -17 18 -22 0
-12 -16 17 -18 -22 0
-12 16 -17 -18 -22 0
12 -16 -17 -18 -22 0
13 17 18 19 23 0
-13 -17 18 19 23 0
-13 17 -18 19 23 0
-13 17 18 -19 23 0
-13 17 18 19 -23 0
13 -17 -18 19 23 0
13 -17 18 -19 23 0
13 -17 18 19 -23 0
13 17 -18 -19 23 0
13 17 -18 19 -23 0
13 17 18 -19 -23 0
-13 -17 -18 -19 23 0
-13 -17 -18 19 -23 0
-13 -17 18 -19 -23 0
-13 17 -18 -19 -23 0
13 -17 -18 -19 -23 0
14 18 19 20 24 0
-14 -18 19 20 24 0
-14 18 -19 20 24 0
-14 18 19 -20 24 0
-14 18 19 20 -24 0
14 -18 -19 20 24 0
14 -18 19 -20 24 0
14 -18 19 20 -24 0
14 18 -19 -20 24 0
14 18 -19 20 -24 0
14 18 19 -20 -24 0
-14 -18 -19 -20 24 0
-14 -18 -19 20 -24 0
-14 -18 19 -20 -24 0
-14 18 -19 -20 -24 0
14 -18 -19 -20 -24 0
15 19 20 25 0
-15 -19 20 25 0
-15 19 -20 25 0
-15 19 20 -25 0
15 -19 -20 25 0
15 -19 20 -25 0
15 19 -20 -25 0
-15 -19 -20 -25 0
16 21 22 0
-16 -21 22 0
-16 21 -22 0
16 -21 -22 0
17 21 22 23 0
-17 -21 22 23 0
-17 21 -22 23 0
-17 21 22 -23 0
17 -21 -22 23 0
17 -21 22 -23 0
17 21 -22 -23 0
-17 -21 -22 -23 0
18 22 23 24 0
-18 -22 23 24 0
-18 22 -23 24 0
-18 22 23 -24 0
18 -22 -23 24 0
18 -22 23 -24 0
18 22 -23 -24 0
-18 -22 -23 -24 0
19 23 24 25 0
-19 -23 24 25 0
-19 23 -24 25 0
-19 23 24 -25 0
19 -23 -24 25 0
19 -23 24 -25 0
19 23 -24 -25 0
-19 -23 -24 -25 0
20 24 25 0
-20 -24 25 0
-20 24 -25 0
20 -24 -25 0
